Version identifier: 22.1.0.0 | 2022-03-09 | 1a383f8ce
CPXPARAM_Threads                                 1
CPXPARAM_MIP_Strategy_VariableSelect             3
CPXPARAM_TimeLimit                               600
Retaining values of one MIP start for possible repair.
Tried aggregator 2 times.
MIP Presolve eliminated 46 rows and 925 columns.
MIP Presolve added 36 rows and 9 columns.
MIP Presolve modified 48 coefficients.
Aggregator did 9 substitutions.
Reduced MIP has 2150 rows, 3080 columns, and 71412 nonzeros.
Reduced MIP has 3080 binaries, 0 generals, 0 SOSs, and 0 indicators.
Presolve time = 0.10 sec. (146.84 ticks)
Found incumbent of value 1.000000 after 0.12 sec. (160.51 ticks)
Probing time = 0.01 sec. (12.49 ticks)
Tried aggregator 1 time.
Detecting symmetries...
MIP Presolve modified 11 coefficients.
Reduced MIP has 2150 rows, 3080 columns, and 71554 nonzeros.
Reduced MIP has 3080 binaries, 0 generals, 0 SOSs, and 0 indicators.
Presolve time = 0.07 sec. (108.83 ticks)
Probing time = 0.01 sec. (12.50 ticks)
Clique table members: 1530.
MIP emphasis: balance optimality and feasibility.
MIP search method: dynamic search.
Parallel mode: none, using 1 thread.
Root relaxation solution time = 0.03 sec. (29.94 ticks)

        Nodes                                         Cuts/
   Node  Left     Objective  IInf  Best Integer    Best Bound    ItCnt     Gap

*     0+    0                            1.0000    47586.0000              --- 
      0     0      308.0000    72        1.0000      308.0000      543     --- 
*     0+    0                          308.0000      308.0000             0.00%
      0     0        cutoff            308.0000      308.0000      543    0.00%
Elapsed time = 0.34 sec. (430.35 ticks, tree = 0.01 MB, solutions = 2)

Root node processing (before b&c):
  Real time             =    0.34 sec. (430.50 ticks)
Sequential b&c:
  Real time             =    0.00 sec. (0.00 ticks)
                          ------------
Total (root+branch&cut) =    0.34 sec. (430.50 ticks)
Primal:	308
Dual:	308
Status:	Optimal
Time:	0.37
Sequence:
	3
	4
	9
	6
	9
	9
	9
	6
	9
	9
	9
	6
	9
	9
	9
	9
	6
	9
	9
	2
	5
	9
	9
	9
	6
	0
	10
	9
	6
	9
	9
	1
	9
	6
	9
	5
	9
	5
	9
	6
	9
	9
	9
	9
	6
	9
	3
	9
	6
	9
	9
	9
	6
	9
	4
	9
	6
	9
	9
	9
	6
	9
	10
	9
	6
	9
	5
	9
	6
	9
	9
	9
	6
	9
	9
	9
	6
	9
	5
	9
	4
	3
	4
	6
	0
	5
	4
	0
	5
	9
	6
	9
	5
	4
	9
	6
	0
	4
	9
	5
	0
	6
	4
	1
	0
	4
	10
	9
	6
	0
	4
	5
	0
	9
	6
	0
	9
	5
	0
	9
	6
	9
	9
	9
	5
	9
	6
	0
	9
	9
	6
	9
	5
	9
	0
	5
	9
	6
	9
	1
	9
	5
	9
	6
	9
	5
	9
	9
	6
	9
	9
	9
	9
	6
	9
	9
	4
	5
	9
	5
	9
	5
	9
	5
	4
	2
	5
	9
	6
	9
	5
	0
	5
	9
	5
	4
	2
	5
	9
	0
	6
	9
	2
	4
	1
	2
	6
	9
	4
	2
	9
	9
	9
	6
	9
	5
	0
	5
	9
	9
	6
	9
	5
	0
	4
	6
	0
	5
	9
	0
	4
	6
	0
	4
	4
	9
	4
	6
	9
	3
	4
	6
	0
	9
	9
	6
	9
	9
	0
	10
	4
	0
	6
	4
	0
	4
	6
	0
	5
	9
	6
	9
	9
	1
	9
	5
	9
	9
	6
	9
	5
	9
	2
	9
	6
	9
	5
	9
	4
	9
	9
	9
	6
	9
	9
	9
	6
	9
	9
	5
	9
	6
	9
	9
	9
	9
	6
	9
	1
	9
	6
	9
	9
	9
	1
	9
	6
	9
	5
	2
	9
	6
	4
	1
	4
	5
	9
	6
	4
	1
	4
	4
	9
	4
	4
	1
	4
	6
